language Essence 1.3
letting nnodes be 30
letting nrings be 22
letting capacity be 16
letting demand be 
{{1, 2},
{1, 3},
{1, 9},
{1, 10},
{1, 12},
{1, 13},
{1, 14},
{1, 15},
{1, 17},
{1, 19},
{1, 20},
{1, 24},
{1, 25},
{1, 29},
{1, 30},
{2, 4},
{2, 5},
{2, 7},
{2, 8},
{2, 10},
{2, 12},
{2, 14},
{2, 20},
{2, 21},
{2, 22},
{2, 24},
{2, 25},
{2, 26},
{2, 27},
{3, 7},
{3, 8},
{3, 9},
{3, 14},
{3, 15},
{3, 16},
{3, 20},
{3, 21},
{3, 22},
{3, 23},
{3, 24},
{3, 26},
{3, 27},
{3, 29},
{3, 30},
{4, 6},
{4, 7},
{4, 10},
{4, 13},
{4, 15},
{4, 16},
{4, 18},
{4, 21},
{4, 22},
{4, 23},
{4, 24},
{4, 25},
{4, 30},
{5, 7},
{5, 9},
{5, 10},
{5, 12},
{5, 13},
{5, 14},
{5, 17},
{5, 18},
{5, 19},
{5, 25},
{5, 28},
{6, 7},
{6, 8},
{6, 10},
{6, 12},
{6, 13},
{6, 14},
{6, 16},
{6, 17},
{6, 18},
{6, 20},
{6, 22},
{6, 28},
{7, 8},
{7, 9},
{7, 10},
{7, 11},
{7, 13},
{7, 16},
{7, 19},
{7, 20},
{7, 22},
{7, 24},
{7, 25},
{7, 26},
{8, 9},
{8, 10},
{8, 12},
{8, 13},
{8, 14},
{8, 15},
{8, 18},
{8, 19},
{8, 20},
{8, 23},
{8, 25},
{8, 27},
{8, 28},
{8, 29},
{9, 10},
{9, 11},
{9, 14},
{9, 16},
{9, 17},
{9, 19},
{9, 20},
{9, 21},
{9, 25},
{9, 26},
{9, 27},
{9, 29},
{10, 12},
{10, 16},
{10, 22},
{10, 25},
{10, 27},
{10, 29},
{10, 30},
{11, 12},
{11, 14},
{11, 16},
{11, 18},
{11, 20},
{11, 21},
{11, 22},
{11, 24},
{11, 26},
{11, 27},
{11, 28},
{11, 30},
{12, 15},
{12, 17},
{12, 18},
{12, 21},
{12, 25},
{12, 26},
{12, 27},
{12, 28},
{12, 29},
{13, 16},
{13, 17},
{13, 18},
{13, 22},
{13, 24},
{13, 27},
{13, 28},
{13, 29},
{13, 30},
{14, 16},
{14, 19},
{14, 20},
{14, 22},
{14, 26},
{14, 27},
{15, 17},
{15, 18},
{15, 19},
{15, 22},
{15, 24},
{15, 25},
{15, 26},
{15, 28},
{15, 29},
{16, 17},
{16, 19},
{16, 20},
{16, 23},
{16, 25},
{16, 27},
{17, 24},
{17, 25},
{17, 27},
{17, 28},
{17, 29},
{18, 23},
{18, 25},
{18, 26},
{18, 27},
{18, 29},
{18, 30},
{19, 20},
{19, 23},
{19, 25},
{19, 26},
{19, 29},
{20, 21},
{20, 24},
{20, 25},
{20, 26},
{21, 24},
{21, 25},
{21, 26},
{21, 29},
{22, 23},
{22, 24},
{22, 25},
{22, 29},
{22, 30},
{23, 24},
{23, 25},
{23, 26},
{23, 30},
{24, 25},
{24, 30},
{25, 29},
{26, 30},
{29, 30}}
